
Gurobi 9.5.2 (mac64[x86]) logging started Tue May  9 20:44:02 2023

Set parameter LogFile to value "logFiles/N-1L-45D/N-1L-6U-13F-18V-45D-a-basic_heuristic.log"
Gurobi Optimizer version 9.5.2 build v9.5.2rc0 (mac64[x86])
Thread count: 4 physical cores, 8 logical processors, using up to 8 threads
Optimize a model with 10238 rows, 14092 columns and 69904 nonzeros
Model fingerprint: 0xe9f1246d
Variable types: 305 continuous, 13787 integer (13787 binary)
Coefficient statistics:
  Matrix range     [1e+00, 2e+05]
  Objective range  [4e+01, 2e+07]
  Bounds range     [1e+00, 1e+00]
  RHS range        [1e+00, 8e+05]
Presolve removed 9156 rows and 5585 columns
Presolve time: 0.18s
Presolved: 1082 rows, 8507 columns, 41234 nonzeros
Variable types: 305 continuous, 8202 integer (8202 binary)

Root relaxation: objective 4.175536e+08, 3325 iterations, 0.15 seconds (0.13 work units)

    Nodes    |    Current Node    |     Objective Bounds      |     Work
 Expl Unexpl |  Obj  Depth IntInf | Incumbent    BestBd   Gap | It/Node Time

     0     0 4.1755e+08    0   50          - 4.1755e+08      -     -    0s
     0     0 4.1755e+08    0   59          - 4.1755e+08      -     -    1s
     0     0 4.1755e+08    0   59          - 4.1755e+08      -     -    1s
     0     0 4.1755e+08    0   55          - 4.1755e+08      -     -    1s
     0     0 4.1755e+08    0   59          - 4.1755e+08      -     -    1s
     0     0 4.1754e+08    0   63          - 4.1754e+08      -     -    1s
H    0     0                    3.655908e+08 4.1754e+08  14.2%     -    1s
     0     0 4.1754e+08    0   57 3.6559e+08 4.1754e+08  14.2%     -    1s
H    0     0                    4.111556e+08 4.1752e+08  1.55%     -    3s
     0     2 4.1752e+08    0   51 4.1116e+08 4.1752e+08  1.55%     -    3s
H   31    36                    4.123645e+08 4.1752e+08  1.25%  11.3    4s
    69   166 4.1752e+08   17   13 4.1236e+08 4.1752e+08  1.25%   9.8    5s
H 1449  1574                    4.124226e+08 4.1752e+08  1.24%   3.7    7s
  2333  2180 4.1752e+08   55   44 4.1242e+08 4.1752e+08  1.24%   4.9   10s
H 2335  2074                    4.124289e+08 4.1752e+08  1.23%   6.4   13s
H 2430  2037                    4.127484e+08 4.1752e+08  1.16%   6.5   15s
H 3560  2598                    4.127601e+08 4.1752e+08  1.15%   7.8   18s
H 4092  2760                    4.130114e+08 4.1752e+08  1.09%   7.6   20s
H 7806  4816                    4.131964e+08 4.1752e+08  1.05%   6.2   22s
H 8988  5888                    4.132096e+08 4.1752e+08  1.04%   6.1   24s
H 9000  5763                    4.133815e+08 4.1752e+08  1.00%   6.1   24s
  9932  6591 4.1474e+08  155    9 4.1338e+08 4.1752e+08  1.00%   6.3   25s
H12765  8791                    4.133815e+08 4.1752e+08  1.00%   6.1   28s
H14362 10711                    4.133857e+08 4.1752e+08  1.00%   6.0   29s
 14990 11318 4.1746e+08  127   11 4.1339e+08 4.1752e+08  1.00%   6.0   30s
H15812 11454                    4.134974e+08 4.1752e+08  0.97%   6.0   30s
H16236 11906                    4.135136e+08 4.1752e+08  0.97%   6.1   30s
H17032 12450                    4.135142e+08 4.1752e+08  0.97%   6.2   32s
H17273 12443                    4.135212e+08 4.1752e+08  0.97%   6.1   32s
 20333 15526 4.1734e+08  127   32 4.1352e+08 4.1752e+08  0.97%   5.9   35s
H20559 15507                    4.135417e+08 4.1752e+08  0.96%   5.9   35s

Explored 21792 nodes (131827 simplex iterations) in 42.44 seconds (36.66 work units)
Thread count was 8 (of 8 available processors)

Solution count 10: 4.13542e+08 4.13521e+08 4.13514e+08 ... 4.13196e+08

Solve interrupted
Best objective 4.135416928555e+08, best bound 4.175208753265e+08, gap 0.9622%

Gurobi 9.5.2 (mac64[x86]) logging started Tue May  9 20:46:42 2023

Set parameter LogFile to value "logFiles/N-1L-45D/N-1L-6U-13F-18V-45D-a-basic_heuristic.log"
Gurobi Optimizer version 9.5.2 build v9.5.2rc0 (mac64[x86])
Thread count: 4 physical cores, 8 logical processors, using up to 8 threads
Optimize a model with 10238 rows, 14092 columns and 9288 nonzeros
Model fingerprint: 0xd8b4a80b
Variable types: 305 continuous, 13787 integer (13787 binary)
Coefficient statistics:
  Matrix range     [1e+00, 1e+05]
  Objective range  [1e+05, 2e+07]
  Bounds range     [1e+00, 1e+00]
  RHS range        [1e+00, 2e+05]
Presolve removed 9330 rows and 0 columns
Presolve time: 0.00s

Explored 0 nodes (0 simplex iterations) in 0.01 seconds (0.00 work units)
Thread count was 1 (of 8 available processors)

Solution count 0
No other solutions better than -1e+100

Model is infeasible
Best objective -, best bound -, gap -

Gurobi 9.5.2 (mac64[x86]) logging started Tue May  9 20:51:24 2023

Set parameter LogFile to value "logFiles/N-1L-45D/N-1L-6U-13F-18V-45D-a-basic_heuristic.log"
Gurobi Optimizer version 9.5.2 build v9.5.2rc0 (mac64[x86])
Thread count: 4 physical cores, 8 logical processors, using up to 8 threads
Optimize a model with 10238 rows, 14092 columns and 9288 nonzeros
Model fingerprint: 0x0b5a4b0a
Variable types: 305 continuous, 13787 integer (13787 binary)
Coefficient statistics:
  Matrix range     [1e+00, 1e+05]
  Objective range  [1e+05, 2e+07]
  Bounds range     [1e+00, 1e+00]
  RHS range        [1e+00, 2e+05]
Presolve removed 84 rows and 0 columns
Presolve time: 0.01s

Explored 0 nodes (0 simplex iterations) in 0.03 seconds (0.00 work units)
Thread count was 1 (of 8 available processors)

Solution count 0
No other solutions better than -1e+100

Model is infeasible
Best objective -, best bound -, gap -

IIS computed: 1 constraints, 0 bounds
IIS runtime: 0.00 seconds (0.00 work units)

Gurobi 9.5.2 (mac64[x86]) logging started Tue May  9 20:53:01 2023

Set parameter LogFile to value "logFiles/N-1L-45D/N-1L-6U-13F-18V-45D-a-basic_heuristic.log"
Gurobi Optimizer version 9.5.2 build v9.5.2rc0 (mac64[x86])
Thread count: 4 physical cores, 8 logical processors, using up to 8 threads
Optimize a model with 10238 rows, 14092 columns and 9288 nonzeros
Model fingerprint: 0xd60454fd
Variable types: 305 continuous, 13787 integer (13787 binary)
Coefficient statistics:
  Matrix range     [1e+00, 1e+05]
  Objective range  [1e+05, 2e+07]
  Bounds range     [1e+00, 1e+00]
  RHS range        [1e+00, 2e+05]
Presolve removed 9388 rows and 0 columns
Presolve time: 0.00s

Explored 0 nodes (0 simplex iterations) in 0.00 seconds (0.00 work units)
Thread count was 1 (of 8 available processors)

Solution count 0
No other solutions better than -1e+100

Model is infeasible
Best objective -, best bound -, gap -

IIS computed: 1 constraints, 0 bounds
IIS runtime: 0.00 seconds (0.00 work units)

Gurobi 9.5.2 (mac64[x86]) logging started Tue May  9 20:59:48 2023

Set parameter LogFile to value "logFiles/N-1L-45D/N-1L-6U-13F-18V-45D-a-basic_heuristic.log"
Gurobi Optimizer version 9.5.2 build v9.5.2rc0 (mac64[x86])
Thread count: 4 physical cores, 8 logical processors, using up to 8 threads
Optimize a model with 10238 rows, 14092 columns and 9288 nonzeros
Model fingerprint: 0x0fcdb435
Variable types: 305 continuous, 13787 integer (13787 binary)
Coefficient statistics:
  Matrix range     [1e+00, 1e+05]
  Objective range  [1e+05, 2e+07]
  Bounds range     [1e+00, 1e+00]
  RHS range        [1e+00, 2e+05]
Presolve removed 9364 rows and 0 columns
Presolve time: 0.01s

Explored 0 nodes (0 simplex iterations) in 0.02 seconds (0.00 work units)
Thread count was 1 (of 8 available processors)

Solution count 0
No other solutions better than -1e+100

Model is infeasible
Best objective -, best bound -, gap -

IIS computed: 1 constraints, 0 bounds
IIS runtime: 0.00 seconds (0.00 work units)

Gurobi 9.5.2 (mac64[x86]) logging started Tue May  9 21:01:35 2023

Set parameter LogFile to value "logFiles/N-1L-45D/N-1L-6U-13F-18V-45D-a-basic_heuristic.log"
Gurobi Optimizer version 9.5.2 build v9.5.2rc0 (mac64[x86])
Thread count: 4 physical cores, 8 logical processors, using up to 8 threads
Optimize a model with 9409 rows, 14030 columns and 0 nonzeros
Model fingerprint: 0xcb985507
Variable types: 305 continuous, 13725 integer (13725 binary)
Coefficient statistics:
  Matrix range     [0e+00, 0e+00]
  Objective range  [0e+00, 0e+00]
  Bounds range     [1e+00, 1e+00]
  RHS range        [1e+00, 2e+05]
Presolve removed 112 rows and 0 columns
Presolve time: 0.00s

Explored 0 nodes (0 simplex iterations) in 0.01 seconds (0.00 work units)
Thread count was 1 (of 8 available processors)

Solution count 0
No other solutions better than -1e+100

Model is infeasible
Best objective -, best bound -, gap -

IIS computed: 1 constraints, 0 bounds
IIS runtime: 0.00 seconds (0.00 work units)

Gurobi 9.5.2 (mac64[x86]) logging started Tue May  9 21:10:47 2023

Set parameter LogFile to value "logFiles/N-1L-45D/N-1L-6U-13F-18V-45D-a-basic_heuristic.log"
Gurobi Optimizer version 9.5.2 build v9.5.2rc0 (mac64[x86])
Thread count: 4 physical cores, 8 logical processors, using up to 8 threads
Optimize a model with 9409 rows, 14030 columns and 69782 nonzeros
Model fingerprint: 0xaffc1e48
Variable types: 305 continuous, 13725 integer (13725 binary)
Coefficient statistics:
  Matrix range     [1e+00, 2e+05]
  Objective range  [4e+01, 2e+07]
  Bounds range     [1e+00, 1e+00]
  RHS range        [1e+00, 8e+05]
Presolve removed 8277 rows and 4277 columns
Presolve time: 0.14s
Presolved: 1132 rows, 9753 columns, 47361 nonzeros
Variable types: 305 continuous, 9448 integer (9448 binary)

Root relaxation: objective 4.200113e+08, 3949 iterations, 0.18 seconds (0.17 work units)

    Nodes    |    Current Node    |     Objective Bounds      |     Work
 Expl Unexpl |  Obj  Depth IntInf | Incumbent    BestBd   Gap | It/Node Time

     0     0 4.2001e+08    0   35          - 4.2001e+08      -     -    0s
     0     0 4.2001e+08    0   62          - 4.2001e+08      -     -    1s
     0     0 4.2001e+08    0   65          - 4.2001e+08      -     -    1s
     0     0 4.1999e+08    0   54          - 4.1999e+08      -     -    1s
     0     0 4.1999e+08    0   56          - 4.1999e+08      -     -    1s
     0     0 4.1999e+08    0   65          - 4.1999e+08      -     -    1s
     0     0 4.1999e+08    0   62          - 4.1999e+08      -     -    1s
     0     0 4.1999e+08    0   65          - 4.1999e+08      -     -    1s
     0     0 4.1999e+08    0   65          - 4.1999e+08      -     -    1s
     0     0 4.1998e+08    0   78          - 4.1998e+08      -     -    2s
     0     0 4.1998e+08    0   78          - 4.1998e+08      -     -    2s
     0     0 4.1998e+08    0   76          - 4.1998e+08      -     -    2s
H    0     0                    3.686937e+08 4.1998e+08  13.9%     -    2s
     0     0 4.1998e+08    0   69 3.6869e+08 4.1998e+08  13.9%     -    2s
H    0     0                    4.058456e+08 4.1996e+08  3.48%     -    3s
H    0     0                    4.063656e+08 4.1996e+08  3.34%     -    5s
     0     2 4.1996e+08    0   69 4.0637e+08 4.1996e+08  3.34%     -    5s
H   28    32                    4.137912e+08 4.1996e+08  1.49%  21.7    6s
H 1156  1089                    4.154648e+08 4.1996e+08  1.08%   6.7    9s
H 1163  1088                    4.155096e+08 4.1996e+08  1.07%   6.7    9s
H 1203  1084                    4.156607e+08 4.1996e+08  1.03%   6.6    9s
  1204  1392 4.1990e+08   44   11 4.1566e+08 4.1996e+08  1.03%   6.6   10s
H 1672  1655                    4.156810e+08 4.1996e+08  1.03%   6.6   10s
H 1908  1574                    4.157145e+08 4.1996e+08  1.02%   6.4   15s
H 1909  1496                    4.157248e+08 4.1996e+08  1.02%   6.4   16s
  1931  1512 4.1981e+08   74   34 4.1572e+08 4.1981e+08  0.98%   8.5   21s
H 1931  1436                    4.157451e+08 4.1981e+08  0.98%   8.5   23s
  1938  1441 4.1975e+08  102   97 4.1575e+08 4.1981e+08  0.98%   8.5   25s
H 1973  1396                    4.157918e+08 4.1979e+08  0.96%  10.8   31s
  2709  1821 4.1969e+08   87   24 4.1579e+08 4.1979e+08  0.96%  12.3   36s
H 2734  1808                    4.157937e+08 4.1979e+08  0.96%  12.3   37s
H 3275  1990                    4.157947e+08 4.1979e+08  0.96%  11.8   37s
  3949  2383 4.1947e+08  226   10 4.1579e+08 4.1979e+08  0.96%  12.8   40s

Cutting planes:
  Gomory: 4
  Lift-and-project: 16
  Cover: 1
  MIR: 3
  Flow cover: 6
  GUB cover: 4
  Zero half: 3
  RLT: 1

Explored 4443 nodes (60343 simplex iterations) in 40.77 seconds (25.49 work units)
Thread count was 8 (of 8 available processors)

Solution count 10: 4.15795e+08 4.15794e+08 4.15792e+08 ... 4.15465e+08

Solve interrupted
Best objective 4.157946525254e+08, best bound 4.197921440332e+08, gap 0.9614%

Gurobi 9.5.2 (mac64[x86]) logging started Tue May  9 21:11:45 2023

Set parameter LogFile to value "logFiles/N-1L-45D/N-1L-6U-13F-18V-45D-a-basic_heuristic.log"
Gurobi Optimizer version 9.5.2 build v9.5.2rc0 (mac64[x86])
Thread count: 4 physical cores, 8 logical processors, using up to 8 threads
Optimize a model with 9409 rows, 14030 columns and 69782 nonzeros
Model fingerprint: 0xaffc1e48
Variable types: 305 continuous, 13725 integer (13725 binary)
Coefficient statistics:
  Matrix range     [1e+00, 2e+05]
  Objective range  [4e+01, 2e+07]
  Bounds range     [1e+00, 1e+00]
  RHS range        [1e+00, 8e+05]
Presolve removed 8277 rows and 4277 columns
Presolve time: 0.14s
Presolved: 1132 rows, 9753 columns, 47361 nonzeros
Variable types: 305 continuous, 9448 integer (9448 binary)

Root relaxation: objective 4.200113e+08, 3949 iterations, 0.18 seconds (0.17 work units)

    Nodes    |    Current Node    |     Objective Bounds      |     Work
 Expl Unexpl |  Obj  Depth IntInf | Incumbent    BestBd   Gap | It/Node Time

     0     0 4.2001e+08    0   35          - 4.2001e+08      -     -    0s
     0     0 4.2001e+08    0   62          - 4.2001e+08      -     -    1s
     0     0 4.2001e+08    0   65          - 4.2001e+08      -     -    1s
     0     0 4.1999e+08    0   54          - 4.1999e+08      -     -    1s
     0     0 4.1999e+08    0   56          - 4.1999e+08      -     -    1s
     0     0 4.1999e+08    0   65          - 4.1999e+08      -     -    1s
     0     0 4.1999e+08    0   62          - 4.1999e+08      -     -    1s
     0     0 4.1999e+08    0   65          - 4.1999e+08      -     -    1s
     0     0 4.1999e+08    0   65          - 4.1999e+08      -     -    1s
     0     0 4.1998e+08    0   78          - 4.1998e+08      -     -    2s
     0     0 4.1998e+08    0   78          - 4.1998e+08      -     -    2s
     0     0 4.1998e+08    0   76          - 4.1998e+08      -     -    2s
H    0     0                    3.686937e+08 4.1998e+08  13.9%     -    2s
     0     0 4.1998e+08    0   69 3.6869e+08 4.1998e+08  13.9%     -    2s
H    0     0                    4.058456e+08 4.1996e+08  3.48%     -    3s
H    0     0                    4.063656e+08 4.1996e+08  3.34%     -    5s
     0     2 4.1996e+08    0   69 4.0637e+08 4.1996e+08  3.34%     -    5s
H   28    32                    4.137912e+08 4.1996e+08  1.49%  21.7    6s
H 1156  1089                    4.154648e+08 4.1996e+08  1.08%   6.7    9s
H 1163  1088                    4.155096e+08 4.1996e+08  1.07%   6.7    9s
H 1203  1084                    4.156607e+08 4.1996e+08  1.03%   6.6    9s
  1204  1392 4.1990e+08   44   11 4.1566e+08 4.1996e+08  1.03%   6.6   10s
H 1672  1655                    4.156810e+08 4.1996e+08  1.03%   6.6   10s

Cutting planes:
  Lift-and-project: 3
  Cover: 11
  Implied bound: 2
  MIR: 19
  StrongCG: 1
  Flow cover: 11
  GUB cover: 4
  RLT: 5

Explored 1905 nodes (16639 simplex iterations) in 11.97 seconds (7.92 work units)
Thread count was 8 (of 8 available processors)

Solution count 8: 4.15681e+08 4.15661e+08 4.1551e+08 ... 3.68694e+08

Solve interrupted
Best objective 4.156809978249e+08, best bound 4.199578900352e+08, gap 1.0289%
IIS runtime: 0.23 seconds (0.14 work units)

Gurobi 9.5.2 (mac64[x86]) logging started Tue May  9 21:17:43 2023

Set parameter LogFile to value "logFiles/N-1L-45D/N-1L-6U-13F-18V-45D-a-basic_heuristic.log"
IIS runtime: 0.33 seconds (0.15 work units)

Gurobi 9.5.2 (mac64[x86]) logging started Tue May  9 21:28:19 2023

Set parameter LogFile to value "logFiles/N-1L-45D/N-1L-6U-13F-18V-45D-a-basic_heuristic.log"
Gurobi Optimizer version 9.5.2 build v9.5.2rc0 (mac64[x86])
Thread count: 4 physical cores, 8 logical processors, using up to 8 threads
Optimize a model with 9409 rows, 14030 columns and 69782 nonzeros
Model fingerprint: 0xaffc1e48
Variable types: 305 continuous, 13725 integer (13725 binary)
Coefficient statistics:
  Matrix range     [1e+00, 2e+05]
  Objective range  [4e+01, 2e+07]
  Bounds range     [1e+00, 1e+00]
  RHS range        [1e+00, 8e+05]
Presolve removed 8277 rows and 4277 columns
Presolve time: 0.14s
Presolved: 1132 rows, 9753 columns, 47361 nonzeros
Variable types: 305 continuous, 9448 integer (9448 binary)

Root relaxation: objective 4.200113e+08, 3949 iterations, 0.17 seconds (0.17 work units)

    Nodes    |    Current Node    |     Objective Bounds      |     Work
 Expl Unexpl |  Obj  Depth IntInf | Incumbent    BestBd   Gap | It/Node Time

     0     0 4.2001e+08    0   35          - 4.2001e+08      -     -    0s
     0     0 4.2001e+08    0   62          - 4.2001e+08      -     -    2s
H    0     0                    4.156413e+08 4.2001e+08  1.05%     -    2s
H    0     0                    4.158937e+08 4.2001e+08  0.99%     -    3s
     0     0 4.2001e+08    0   65 4.1589e+08 4.2001e+08  0.99%     -    3s
     0     0 4.1999e+08    0   54 4.1589e+08 4.1999e+08  0.98%     -    3s
     0     0 4.1999e+08    0   56 4.1589e+08 4.1999e+08  0.98%     -    3s
     0     0 4.1999e+08    0   65 4.1589e+08 4.1999e+08  0.98%     -    4s
H    0     0                    4.163729e+08 4.1999e+08  0.87%     -    4s
     0     0 4.1999e+08    0   64 4.1637e+08 4.1999e+08  0.87%     -    4s
     0     0 4.1999e+08    0   65 4.1637e+08 4.1999e+08  0.87%     -    5s
     0     0 4.1999e+08    0   66 4.1637e+08 4.1999e+08  0.87%     -    5s
     0     0 4.1998e+08    0   80 4.1637e+08 4.1998e+08  0.87%     -    5s
     0     0 4.1998e+08    0   80 4.1637e+08 4.1998e+08  0.87%     -    5s
     0     0 4.1998e+08    0   80 4.1637e+08 4.1998e+08  0.87%     -    5s
H    0     0                    4.164626e+08 4.1998e+08  0.85%     -    5s
     0     0 4.1998e+08    0   75 4.1646e+08 4.1998e+08  0.85%     -    5s
     0     0 4.1998e+08    0   69 4.1646e+08 4.1998e+08  0.85%     -    6s
     0     2 4.1996e+08    0   67 4.1646e+08 4.1996e+08  0.84%     -    9s
H   30    35                    4.164784e+08 4.1996e+08  0.84%  20.6   11s
   755   796 4.1959e+08  187   52 4.1648e+08 4.1996e+08  0.84%   8.7   15s
  1651  1804 4.1876e+08  437   22 4.1648e+08 4.1996e+08  0.84%   7.3   20s
H 1908  1998                    4.166448e+08 4.1996e+08  0.79%   6.9   22s
H 2360  2325                    4.167734e+08 4.1996e+08  0.76%   6.6   24s
  2414  2601 4.1731e+08  640   53 4.1677e+08 4.1996e+08  0.76%   6.6   25s
H 2651  2601                    4.167758e+08 4.1996e+08  0.76%   6.5   25s
H 2858  2785                    4.167760e+08 4.1996e+08  0.76%   6.5   27s

Cutting planes:
  Lift-and-project: 3
  Cover: 14
  MIR: 16
  Flow cover: 9
  GUB cover: 7
  RLT: 3
  Relax-and-lift: 1

Explored 2923 nodes (23591 simplex iterations) in 27.86 seconds (24.14 work units)
Thread count was 8 (of 8 available processors)

Solution count 9: 4.16776e+08 4.16776e+08 4.16773e+08 ... 4.15641e+08

Solve interrupted
Best objective 4.167759500402e+08, best bound 4.199563096435e+08, gap 0.7631%
